
--- Job Linear.gms Start 04/17/20 16:18:14 30.3.0 rc5da09e WEX-WEI x86 64bit/MS Windows
--- GAMS Parameters defined
    Input C:\Users\debernal\Dropbox\Quantum Embedding\GAMS\coloring\Linear.gms
    PageWidth 80
    PageSize 0
    PageContr 3
    Action CE
    ScrDir C:\Users\debernal\Dropbox\Quantum Embedding\GAMS\coloring\225a\
    SysDir C:\GAMS\win64\30.3\
    WorkDir C:\Users\debernal\Dropbox\Quantum Embedding\GAMS\coloring\
    LogOption 3
    DFormat 0
    TFormat 0
    ErrorLog 99
    LimRow 50
    IDE 1
GAMS 30.3.0   Copyright (C) 1987-2020 GAMS Development. All rights reserved
Licensee: Eval License Carnegie Mellon University        G191212/0001AB-GEN
          Dept. of Chemical Engineering                              DCE375
          Evaluation license: Not for commercial or production use
--- Starting compilation
--- Linear.gms(3) 2 Mb
--- . devil50.inc(2658) 3 Mb
--- Linear.gms(30) 3 Mb
--- Starting execution: elapsed 0:00:00.011
--- Linear.gms(2684) 4 Mb
--- Generating MIP model coloring
--- Linear.gms(2686) 7 Mb
---   8,106 rows  457 columns  16,819 non-zeroes
---   456 discrete-columns
--- Executing GUROBI: elapsed 0:00:00.106

Gurobi           30.3.0 rc5da09e Released Mar 06, 2020 WEI x86 64bit/MS Window

Academic license - for non-commercial use only
Gurobi link license.
Gurobi library version 9.0.1
Space for names approximately 0.23 Mb
Use option 'names no' to turn use of names off
Starting Gurobi...
Gurobi Optimizer version 9.0.1 build v9.0.1rc0 (win64)
Optimize a model with 8105 rows, 456 columns and 16362 nonzeros
Model fingerprint: 0x8447ba47
Variable types: 0 continuous, 456 integer (456 binary)
Coefficient statistics:
  Matrix range     [1e+00, 1e+00]
  Objective range  [1e+00, 1e+00]
  Bounds range     [1e+00, 1e+00]
  RHS range        [1e+00, 1e+00]
Found heuristic solution: objective 152.0000000
Presolve time: 0.07s
Presolved: 8105 rows, 456 columns, 16362 nonzeros
Variable types: 0 continuous, 456 integer (456 binary)

Root relaxation: cutoff, 943 iterations, 0.03 seconds

    Nodes    |    Current Node    |     Objective Bounds      |     Work
 Expl Unexpl |  Obj  Depth IntInf | Incumbent    BestBd   Gap | It/Node Time

     0     0     cutoff    0       152.00000  152.00000  0.00%     -    0s

Explored 0 nodes (943 simplex iterations) in 0.12 seconds
Thread count was 1 (of 8 available processors)

Solution count 1: 152 

Optimal solution found (tolerance 1.00e-01)
Best objective 1.520000000000e+02, best bound 1.520000000000e+02, gap 0.0000%

User-callback calls 64, time in user-callback 0.00 sec
MIP status(2): Model was solved to optimality (subject to tolerances).

Solving fixed MIP.
Gurobi Optimizer version 9.0.1 build v9.0.1rc0 (win64)
Optimize a model with 8105 rows, 456 columns and 16362 nonzeros
Model fingerprint: 0xae4264f3
Coefficient statistics:
  Matrix range     [1e+00, 1e+00]
  Objective range  [1e+00, 1e+00]
  Bounds range     [1e+00, 1e+00]
  RHS range        [1e+00, 1e+00]
Presolve removed 456 rows and 8561 columns
Presolve time: 0.15s
Presolve: All rows and columns removed
Iteration    Objective       Primal Inf.    Dual Inf.      Time
       0    1.5200000e+02   0.000000e+00   0.000000e+00      0s

Solved in 0 iterations and 0.16 seconds
Optimal objective  1.520000000e+02

User-callback calls 89, time in user-callback 0.00 sec
Fixed MIP status(2): Model was solved to optimality (subject to tolerances).

MIP   Solution:        152.000000    (943 iterations, 0 nodes)
Final Solve:           152.000000    (0 iterations)

Best possible:         152.000000
Absolute gap:            0.000000
Relative gap:            0.000000

--- Restarting execution
--- Linear.gms(2686) 2 Mb
--- Reading solution for model coloring
--- Linear.gms(2686) 3 Mb
--- Executing after solve: elapsed 0:00:00.611
--- Linear.gms(2688) 4 Mb
*** Status: Normal completion
--- Job Linear.gms Stop 04/17/20 16:18:14 elapsed 0:00:00.638
